nrow = 5;
ncol = 5;

start_row = 5;
start_col = 5;

delay = [ 1, 9, 3, 1, 2 ];
timelimit = 8;

terrain = [| P, P, P, P, M
           | P, C, M, P, P
           | P, P, C, P, P
           | P, R, P, C, F
           | M, R, F, P, P |];
     

Jin = [|  true,  true,  true, false, false
       |  true, false, false, false, false
       |  true, false, false, false, false
       | false, false, false, false, false
       | false, false, false, false, false |];


soldier = [| 3,1,4,8,1
           | 2,1,9,5,4
           | 6,1,4,8,1
           | 3,1,7,1,2
           | 6,1,2,4,1 |];
         

maxstep = 8;